9466 4454
7714 5555
9187 1515
3309 2435
1586 1477
2906 4138
7577 7084
4469 7274
3510 3874
4908 9081
3523 6388
3229 4794
1794 5697
5340 6051
3146 3533
3272 3880
8041 3762
2900 6217
2836 5348
5538 4205
1032 9371
3824 3505
7873 9449
1433 4016
7321 46
3197 6455
8243 9386
5046 5835
348 8598
7490 2136
384 8673
3825 7076
7709 2220
5310 5249
7438 3544
8051 2084
2654 4186
9937 5876
5331 4701
8302 903
4368 4672
1818 7023
5264 5263
840 3769
707 8120
4233 3977
9357 9740
2519 4403
8791 4603
6248 1431
